40
    58    47    84    55    10    17     6    65    93    69    35    59    79    84    44    33    66    97    85    86    84    96    86    21    88    22    55    42    62    69    79    57    18    85    20    78    97    70    21    20
     7     6    10     7     4     3     4     6     3     6     6     8     9     9     5     4     9     4     2     4     6     8     1     9     3     4     9     1     1    10     9     3     9     1     4    10     4     8     4     7
  1786   896  2051  2195   254  2157  2573  2021   795   341   585  1241  1619  1215  1151   568  2437  2473  1213  1246  1907  2446  1672  1456   922   613  1896   929  2394  1623  2428  2047   490  1764  1840   397  1497  2348  1784  2266
